p cnf 20 20
-5 8 -16 0
19 18 7 0
-16 -10 3 0
-1 -14 -6 0
-4 19 18 0
-18 -7 -13 0
-15 -19 7 0
11 -8 18 0
-4 6 -9 0
-2 -17 6 0
-19 2 7 0
-15 -5 3 0
-4 15 8 0
-1 15 -17 0
19 -14 12 0
5 -15 20 0
5 -2 13 0
12 11 -9 0
13 19 -15 0
4 15 1 0
